c clasp version 2.1.4
c Reading from ...Marks/9_Nodes/PBencd_OceanDataCost.opb
c Solving...
o 21919
o 20053
o 19024
o 18661
o 18564
o 15966
o 15329
o 14934
o 14400
o 14305
o 14044
o 13995
o 13611
o 13486
o 12151
o 11659
o 11619
o 11506
o 10201
o 9526
o 9313
o 8525
o 8459
o 8373
o 8284
o 7530
o 7383
o 7140
o 7080
o 7042
o 6135
c Answer: 31
v -x1 x2 -x3 -x4 -x5 -x6 -x7 -x8 x9 -x10 -x11 -x12 -x13 -x14 -x15 -x16 -x17
v -x18 -x19 x20 -x21 -x22 -x23 -x24 -x25 -x26 -x27 -x28 -x29 -x30 x31 -x32
v -x33 -x34 -x35 x36 -x37 -x38 -x39 -x40 -x41 x42 -x43 -x44 -x45 -x46 -x47
v -x48 -x49 -x50 -x51 -x52 -x53 x54 -x55 -x56 -x57 -x58 -x59 -x60 -x61 -x62
v -x63 x64 -x65 -x66 -x67 -x68 -x69 -x70 x71 -x72 -x73 x74 x75 x76 -x77 x78
v -x79 x80 x81 -x82 x83 x84 x85 x86 -x87 x88 -x89 -x90 -x91 x92 -x93 -x94
v -x95 -x96 x97 -x98 -x99 x100 x101 -x102 x103 x104 -x105 x106 -x107 x108
v x109 -x110 -x111 x112 -x113 -x114 -x115 x116 x117 x118 x119 x120 -x121
v -x122 -x123 -x124 -x125 -x126 -x127 x128 x129 -x130 x131 -x132 -x133 x134
v -x135 x136 -x137 -x138 x139 x140 -x141 -x142 x143 -x144 x145 -x146 -x147
v x148 -x149 x150 x151 -x152 -x153 x154 -x155 -x156 x157 -x158 -x159 -x160
v -x161 -x162 -x163 x164 -x165 x166 -x167 -x168 -x169 x170 x171 -x172 x173
v x174 -x175 x176 -x177 x178 x179 x180 -x181 -x182 -x183 x184 x185 -x186
v -x187 -x188 x189 x190 x191 -x192 x193 x194 -x195 -x196 x197 x198 x199 x200
v -x201 -x202 -x203 x204 x205 -x206 -x207 -x208 x209 -x210 x211 -x212 -x213
v -x214 -x215 -x216 -x217 x218 -x219 x220 -x221 -x222 -x223 -x224 x225 -x226
v -x227 -x228 -x229 x230 x231 -x232 x233 -x234 -x235 -x236 x237 x238 -x239
v x240 -x241 -x242 -x243 -x244 x245 -x246 -x247 -x248 x249 x250 -x251 -x252
v x253 x254 x255 -x256 -x257 x258 x259 -x260 -x261 -x262 -x263 x264 -x265
v -x266 -x267 x268 -x269 -x270 -x271 -x272 x273 x274 x275 x276 -x277 -x278
v x279 x280 -x281 -x282 x283 -x284 x285 -x286 -x287 x288 x289 x290 -x291
v -x292 -x293 -x294 -x295 -x296 -x297 -x298 -x299 x300 -x301 -x302 x303 x304
v -x305 -x306 -x307 x308 x309 -x310 x311 -x312 -x313 -x314 -x315 -x316 x317
v -x318 x319 -x320 x321 -x322 -x323 -x324 -x325 -x326 -x327 x328 x329 -x330
v x331 -x332 x333 -x334 x335 x336 -x337 -x338 -x339 x340 x341 -x342 x343
v x344 x345 -x346 -x347 x348 x349 x350 x351 -x352 -x353 -x354 x355 -x356
v x357 x358 x359 -x360 x361 -x362 -x363 x364 -x365 x366 -x367 -x368 -x369
v x370 x371 -x372 -x373 x374 x375 x376 -x377 x378 -x379 x380 x381 -x382 -x383
v -x384 -x385 -x386 -x387 -x388 -x389 -x390 -x391 x392 x393 -x394 x395 -x396
v x397 x398 x399 -x400 -x401 -x402 -x403 x404 -x405 -x406 -x407 -x408 -x409
v x410 -x411 -x412 -x413 x414 x415 -x416 -x417 x418 -x419 x420 -x421 -x422
v x423 -x424 -x425 -x426 -x427 -x428 -x429 -x430 -x431 -x432 -x433 -x434
v x435 -x436 -x437
s OPTIMUM FOUND

c Models        : 1     
c   Enumerated  : 31
c   Optimum     : yes
c Optimization  : 6135
c Time          : 0.043s (Solving: 0.04s 1st Model: 0.00s Unsat: 0.00s)
c CPU Time      : 0.030s
c Choices       : 4108
c Conflicts     : 3031
c Restarts      : 0     

c Variables     : 437    (Eliminated:    0 Frozen:  437)
c Constraints   : 164    (Binary:  0.0% Ternary:  0.0% Other:100.0%)
c Lemmas        : 3030   (Binary:  0.8% Ternary:  2.2% Other: 97.1%)
c   Conflict    : 3030   (Average Length: 9.4) 
c   Loop        : 0      (Average Length: 0.0) 
c   Other       : 0      (Average Length: 0.0)
c   Deleted     : 0     

c Backtracks            : 1     
c Backjumps             : 3030   (Bounded: 0)
c Skippable Levels      : 3840   (Skipped: 3840 Rate: 100.0%)
c Max Jump Length       : 12     (Executed: 12)
c Max Bound Length      : 0     
c Average Jump Length   : 1.3    (Executed: 1.3)
c Average Bound Length  : 0.0   
c Average Model Length  : 20.0  
